8140
49, 32, 1, 22, 31, 23, 20, 50, 29, 30, 7, 2, 42, 21, 17, 3, 18, 19, 45, 41, 8, 10, 9, 43, 33, 51, 11, 52, 14, 13, 27, 47, 26, 28, 12, 25, 4, 15, 6, 5, 24, 48, 38, 40, 39, 37, 46, 16, 44, 35, 34, 36
